60 60
15 4
27 13
45 29
7 9
21 16
25 17
8 27
6 25
60 26
18 19
47 18
29 16
55 10
5 8
46 19
58 11
48 6
10 3
4 11
54 24
16 1
1 6
43 2
53 24
40 21
17 5
52 28
12 7
37 15
33 22
59 26
30 20
42 29
36 10
49 14
38 17
39 5
23 12
20 28
28 3
9 8
19 30
41 25
31 18
2 9
57 22
50 20
22 2
24 1
44 15
14 4
35 12
11 30
34 14
56 27
3 21
13 13
51 23
26 23
32 7
